
Gurobi 9.5.2 (mac64[x86]) logging started Mon Apr 17 15:33:41 2023

Set parameter LogFile to value "logFiles/spotTests/N-1L-10U-6F-23V-60D-basic.log"
Gurobi Optimizer version 9.5.2 build v9.5.2rc0 (mac64[x86])
Thread count: 4 physical cores, 8 logical processors, using up to 8 threads
Optimize a model with 21935 rows, 84318 columns and 526988 nonzeros
Model fingerprint: 0x004e27a2
Variable types: 682 continuous, 83636 integer (83636 binary)
Coefficient statistics:
  Matrix range     [1e+00, 2e+05]
  Objective range  [4e+01, 2e+07]
  Bounds range     [1e+00, 1e+00]
  RHS range        [1e+00, 5e+05]
Presolve removed 18403 rows and 23759 columns
Presolve time: 1.55s
Presolved: 3532 rows, 60559 columns, 379428 nonzeros
Variable types: 558 continuous, 60001 integer (60001 binary)

Root simplex log...

Iteration    Objective       Primal Inf.    Dual Inf.      Time
   12942    5.2072715e+08   9.420416e+04   0.000000e+00      5s
   16518    5.2002724e+08   0.000000e+00   0.000000e+00      7s

Root relaxation: objective 5.200272e+08, 16518 iterations, 5.50 seconds (5.04 work units)

    Nodes    |    Current Node    |     Objective Bounds      |     Work
 Expl Unexpl |  Obj  Depth IntInf | Incumbent    BestBd   Gap | It/Node Time

     0     0 5.2003e+08    0  149          - 5.2003e+08      -     -    7s
H    0     0                    5.152818e+08 5.2003e+08  0.92%     -   16s
H    0     0                    5.154699e+08 5.2003e+08  0.88%     -   19s
     0     0 5.1962e+08    0  122 5.1547e+08 5.1962e+08  0.81%     -   22s
H    0     0                    5.177876e+08 5.1962e+08  0.35%     -   50s
     0     0 5.1961e+08    0  123 5.1779e+08 5.1961e+08  0.35%     -   51s
     0     0 5.1961e+08    0  152 5.1779e+08 5.1961e+08  0.35%     -   52s
H    0     0                    5.178277e+08 5.1961e+08  0.34%     -   57s
     0     0 5.1960e+08    0  186 5.1783e+08 5.1960e+08  0.34%     -   58s
     0     0 5.1960e+08    0  182 5.1783e+08 5.1960e+08  0.34%     -   59s
     0     0 5.1960e+08    0  182 5.1783e+08 5.1960e+08  0.34%     -   59s
     0     0 5.1960e+08    0  188 5.1783e+08 5.1960e+08  0.34%     -   60s
     0     0 5.1960e+08    0  190 5.1783e+08 5.1960e+08  0.34%     -   60s
     0     0 5.1958e+08    0  153 5.1783e+08 5.1958e+08  0.34%     -   60s
     0     0 5.1958e+08    0  153 5.1783e+08 5.1958e+08  0.34%     -   61s
     0     0 5.1955e+08    0  153 5.1783e+08 5.1955e+08  0.33%     -   61s
     0     0 5.1955e+08    0  153 5.1783e+08 5.1955e+08  0.33%     -   61s
     0     0 5.1955e+08    0  150 5.1783e+08 5.1955e+08  0.33%     -   62s
     0     0 5.1955e+08    0  149 5.1783e+08 5.1955e+08  0.33%     -   62s
     0     0 5.1955e+08    0  150 5.1783e+08 5.1955e+08  0.33%     -   62s
     0     0 5.1953e+08    0  148 5.1783e+08 5.1953e+08  0.33%     -   63s
     0     0 5.1953e+08    0  178 5.1783e+08 5.1953e+08  0.33%     -   63s
     0     0 5.1953e+08    0  178 5.1783e+08 5.1953e+08  0.33%     -   63s
     0     0 5.1953e+08    0  164 5.1783e+08 5.1953e+08  0.33%     -   64s
     0     0 5.1952e+08    0  164 5.1783e+08 5.1952e+08  0.33%     -   64s
     0     0 5.1952e+08    0  170 5.1783e+08 5.1952e+08  0.33%     -   64s
     0     0 5.1952e+08    0  160 5.1783e+08 5.1952e+08  0.33%     -   64s
     0     0 5.1952e+08    0  162 5.1783e+08 5.1952e+08  0.33%     -   65s
     0     0 5.1952e+08    0  163 5.1783e+08 5.1952e+08  0.33%     -   65s
     0     0 5.1952e+08    0  164 5.1783e+08 5.1952e+08  0.33%     -   65s
     0     0 5.1948e+08    0  174 5.1783e+08 5.1948e+08  0.32%     -   66s
     0     0 5.1948e+08    0  180 5.1783e+08 5.1948e+08  0.32%     -   66s
     0     0 5.1948e+08    0  183 5.1783e+08 5.1948e+08  0.32%     -   66s
     0     0 5.1947e+08    0  164 5.1783e+08 5.1947e+08  0.32%     -   67s
     0     0 5.1947e+08    0  166 5.1783e+08 5.1947e+08  0.32%     -   67s
     0     0 5.1946e+08    0  162 5.1783e+08 5.1946e+08  0.32%     -   67s
     0     0 5.1946e+08    0  154 5.1783e+08 5.1946e+08  0.32%     -   68s
     0     0 5.1946e+08    0  152 5.1783e+08 5.1946e+08  0.32%     -   68s
     0     0 5.1946e+08    0  153 5.1783e+08 5.1946e+08  0.32%     -   68s
     0     0 5.1946e+08    0  154 5.1783e+08 5.1946e+08  0.32%     -   68s
     0     0 5.1946e+08    0  149 5.1783e+08 5.1946e+08  0.32%     -   73s
     0     2 5.1940e+08    0  144 5.1783e+08 5.1940e+08  0.30%     -   81s
     1     4 5.1940e+08    1  152 5.1783e+08 5.1940e+08  0.30%   230   86s
    11    14 5.1940e+08    4  158 5.1783e+08 5.1940e+08  0.30%   253   90s
    28    32 5.1940e+08    7  131 5.1783e+08 5.1940e+08  0.30%   164   95s
    44    52 5.1933e+08   13  117 5.1783e+08 5.1940e+08  0.30%   133  100s
    80    90 5.1922e+08   18  153 5.1783e+08 5.1940e+08  0.30%   106  105s
   145   153 5.1917e+08   27  108 5.1783e+08 5.1940e+08  0.30%  84.5  110s
   278   290 5.1916e+08   47   82 5.1783e+08 5.1940e+08  0.30%  55.4  115s
   373   371 5.1914e+08   61  104 5.1783e+08 5.1940e+08  0.30%  51.0  120s
   514   497 5.1913e+08   77   99 5.1783e+08 5.1940e+08  0.30%  41.7  125s
   706   701 5.1912e+08  110   92 5.1783e+08 5.1940e+08  0.30%  37.8  130s
   907   896 5.1904e+08  157   58 5.1783e+08 5.1940e+08  0.30%  34.6  136s
  1133  1141 5.1902e+08  196   41 5.1783e+08 5.1940e+08  0.30%  31.6  140s
  1384  1389 5.1896e+08  294   28 5.1783e+08 5.1940e+08  0.30%  28.1  145s
  1534  1538 5.1894e+08  377   31 5.1783e+08 5.1940e+08  0.30%  26.9  150s
  1696  1626 5.1887e+08  458   22 5.1783e+08 5.1940e+08  0.30%  26.2  168s
H 1703  1624                    5.178305e+08 5.1940e+08  0.30%  26.3  168s
H 1705  1628                    5.178305e+08 5.1940e+08  0.30%  26.3  180s

Cutting planes:
  Cover: 38
  Implied bound: 10
  Clique: 2
  MIR: 20
  Flow cover: 21
  GUB cover: 1
  Zero half: 5
  Network: 5
  RLT: 2
  Relax-and-lift: 4

Explored 1709 nodes (66387 simplex iterations) in 180.28 seconds (188.42 work units)
Thread count was 8 (of 8 available processors)

Solution count 6: 5.17831e+08 5.17831e+08 5.17828e+08 ... 5.15282e+08

Time limit reached
Best objective 5.178305325911e+08, best bound 5.194011516279e+08, gap 0.3033%
